p tw 28 199
0 1
0 2
0 15
0 6
0 26
0 18
0 27
0 19
0 24
1 2
1 8
1 15
1 5
1 20
1 17
1 24
1 6
1 12
1 27
1 10
1 25
1 9
1 14
1 19
2 10
2 19
2 12
2 18
2 17
2 26
2 4
2 15
2 6
2 3
2 7
2 5
2 24
3 4
3 5
3 16
3 19
3 23
3 24
3 7
3 26
3 10
3 13
3 27
3 9
3 17
3 8
4 5
4 6
4 7
4 8
4 9
4 12
4 22
4 10
4 15
4 24
4 20
4 23
4 26
4 17
5 10
5 11
5 13
5 14
5 15
5 18
5 23
5 20
5 25
5 12
5 7
6 7
6 10
6 12
6 9
6 18
6 26
6 14
6 25
6 23
6 24
6 27
7 8
7 12
7 15
7 16
7 26
7 17
7 13
7 14
7 20
7 11
7 22
8 9
8 15
8 12
8 22
8 14
8 24
8 23
8 26
8 10
8 20
8 19
9 18
9 11
9 20
9 14
9 26
9 10
9 15
9 13
9 19
9 17
10 11
10 12
10 19
10 15
10 13
10 23
10 26
10 24
10 25
11 16
11 17
11 20
11 22
12 22
12 25
12 18
12 13
12 15
12 20
12 23
12 27
12 26
12 17
13 14
13 18
13 23
13 17
13 15
13 26
13 21
13 27
13 19
14 15
14 24
14 17
14 16
14 26
14 20
14 25
14 21
14 19
14 22
14 27
15 22
15 16
15 25
15 17
15 21
15 24
15 18
16 17
16 19
16 20
16 21
16 25
16 26
17 24
17 26
17 20
17 21
17 25
17 23
18 20
18 23
18 27
19 20
19 21
19 25
19 24
19 26
20 21
20 22
20 23
21 25
21 24
22 23
22 27
23 26
24 26
24 27
